NAME 
OBJSENSE MAX
ROWS
 N  OBJ
 L  packing[0]
 L  packing[1]
 L  packing[2]
 L  packing[3]
 L  packing[4]
 L  packing[5]
 L  packing[6]
 L  packing[7]
 L  packing[8]
 L  packing[9]
 L  packing[10]
 L  packing[11]
 L  packing[12]
 L  packing[13]
 L  packing[14]
 L  packing[15]
 L  packing[16]
 L  packing[17]
 L  packing[18]
 L  packing[19]
 L  packing[20]
 L  packing[21]
 L  packing[22]
 L  packing[23]
 L  packing[24]
 L  packing[25]
 L  packing[26]
 L  packing[27]
 L  packing[28]
 L  packing[29]
 L  packing[30]
 L  packing[31]
 L  packing[32]
 L  packing[33]
 L  packing[34]
 L  packing[35]
 L  packing[36]
 L  packing[37]
 L  packing[38]
 L  packing[39]
 L  packing[40]
 L  packing[41]
 L  packing[42]
 L  packing[43]
 L  packing[44]
 L  packing[45]
 L  packing[46]
 L  packing[47]
 L  packing[48]
 L  packing[49]
 L  R53     
COLUMNS
    MARKER    'MARKER'                 'INTORG'
    x[1]      OBJ       134
    x[1]      packing[0]  36
    x[1]      packing[1]  143
    x[1]      packing[2]  126
    x[1]      packing[3]  186
    x[1]      packing[4]  18
    x[1]      packing[5]  99
    x[1]      packing[6]  120
    x[1]      packing[8]  44
    x[1]      packing[9]  34
    x[1]      packing[10]  189
    x[1]      packing[12]  26
    x[1]      packing[13]  148
    x[1]      packing[14]  47
    x[1]      packing[15]  195
    x[1]      packing[17]  140
    x[1]      packing[18]  13
    x[1]      packing[20]  101
    x[1]      packing[21]  125
    x[1]      packing[22]  124
    x[1]      packing[23]  69
    x[1]      packing[25]  105
    x[1]      packing[26]  80
    x[1]      packing[27]  170
    x[1]      packing[28]  190
    x[1]      packing[29]  44
    x[1]      packing[30]  174
    x[1]      packing[31]  162
    x[1]      packing[33]  96
    x[1]      packing[34]  123
    x[1]      packing[35]  180
    x[1]      packing[36]  119
    x[1]      packing[37]  162
    x[1]      packing[38]  32
    x[1]      packing[39]  93
    x[1]      packing[41]  113
    x[1]      packing[42]  132
    x[1]      packing[43]  166
    x[1]      packing[44]  183
    x[1]      packing[45]  151
    x[1]      packing[46]  90
    x[1]      packing[47]  162
    x[1]      packing[48]  157
    x[2]      OBJ       110
    x[2]      packing[2]  179
    x[2]      packing[3]  125
    x[2]      packing[5]  83
    x[2]      packing[6]  157
    x[2]      packing[8]  3
    x[2]      packing[12]  135
    x[2]      packing[13]  184
    x[2]      packing[14]  13
    x[2]      packing[15]  77
    x[2]      packing[16]  118
    x[2]      packing[17]  92
    x[2]      packing[19]  13
    x[2]      packing[21]  64
    x[2]      packing[22]  117
    x[2]      packing[24]  91
    x[2]      packing[25]  186
    x[2]      packing[26]  130
    x[2]      packing[28]  149
    x[2]      packing[29]  104
    x[2]      packing[31]  119
    x[2]      packing[32]  57
    x[2]      packing[33]  41
    x[2]      packing[34]  5
    x[2]      packing[35]  131
    x[2]      packing[37]  79
    x[2]      packing[39]  172
    x[2]      packing[40]  178
    x[2]      packing[41]  77
    x[2]      packing[42]  197
    x[2]      packing[43]  105
    x[2]      packing[44]  26
    x[2]      packing[49]  79
    x[2]      R53       1
    x[3]      OBJ       38
    x[3]      packing[1]  183
    x[3]      packing[2]  112
    x[3]      packing[3]  148
    x[3]      packing[4]  152
    x[3]      packing[5]  106
    x[3]      packing[6]  72
    x[3]      packing[7]  30
    x[3]      packing[8]  20
    x[3]      packing[10]  136
    x[3]      packing[11]  103
    x[3]      packing[12]  84
    x[3]      packing[14]  126
    x[3]      packing[15]  178
    x[3]      packing[16]  137
    x[3]      packing[20]  14
    x[3]      packing[21]  130
    x[3]      packing[22]  18
    x[3]      packing[25]  193
    x[3]      packing[28]  115
    x[3]      packing[29]  35
    x[3]      packing[31]  13
    x[3]      packing[33]  104
    x[3]      packing[34]  54
    x[3]      packing[37]  100
    x[3]      packing[40]  123
    x[3]      packing[42]  108
    x[3]      packing[43]  74
    x[3]      packing[44]  156
    x[3]      packing[45]  124
    x[3]      packing[46]  89
    x[3]      packing[47]  25
    x[3]      packing[49]  141
    x[4]      OBJ       175
    x[4]      packing[0]  110
    x[4]      packing[1]  26
    x[4]      packing[2]  106
    x[4]      packing[3]  71
    x[4]      packing[4]  161
    x[4]      packing[6]  31
    x[4]      packing[7]  26
    x[4]      packing[8]  35
    x[4]      packing[9]  132
    x[4]      packing[11]  86
    x[4]      packing[12]  73
    x[4]      packing[14]  128
    x[4]      packing[16]  150
    x[4]      packing[17]  100
    x[4]      packing[18]  130
    x[4]      packing[19]  110
    x[4]      packing[20]  160
    x[4]      packing[21]  11
    x[4]      packing[22]  116
    x[4]      packing[23]  156
    x[4]      packing[24]  18
    x[4]      packing[27]  76
    x[4]      packing[29]  190
    x[4]      packing[31]  58
    x[4]      packing[33]  122
    x[4]      packing[34]  125
    x[4]      packing[35]  86
    x[4]      packing[36]  87
    x[4]      packing[37]  167
    x[4]      packing[38]  162
    x[4]      packing[39]  1
    x[4]      packing[40]  67
    x[4]      packing[41]  180
    x[4]      packing[42]  131
    x[4]      packing[43]  4
    x[4]      packing[44]  1
    x[4]      packing[45]  177
    x[4]      packing[46]  197
    x[4]      packing[47]  59
    x[4]      packing[49]  172
    x[4]      R53       1
    x[5]      OBJ       166
    x[5]      packing[0]  1
    x[5]      packing[2]  90
    x[5]      packing[3]  38
    x[5]      packing[4]  25
    x[5]      packing[7]  61
    x[5]      packing[9]  45
    x[5]      packing[10]  125
    x[5]      packing[12]  133
    x[5]      packing[13]  148
    x[5]      packing[14]  49
    x[5]      packing[15]  1
    x[5]      packing[16]  2
    x[5]      packing[17]  112
    x[5]      packing[18]  149
    x[5]      packing[19]  74
    x[5]      packing[20]  92
    x[5]      packing[22]  9
    x[5]      packing[26]  83
    x[5]      packing[27]  25
    x[5]      packing[29]  125
    x[5]      packing[30]  52
    x[5]      packing[31]  56
    x[5]      packing[32]  35
    x[5]      packing[33]  65
    x[5]      packing[35]  91
    x[5]      packing[36]  115
    x[5]      packing[37]  189
    x[5]      packing[38]  173
    x[5]      packing[39]  18
    x[5]      packing[40]  115
    x[5]      packing[41]  33
    x[5]      packing[44]  95
    x[5]      packing[46]  146
    x[5]      packing[47]  92
    x[5]      packing[48]  66
    x[5]      packing[49]  90
    x[5]      R53       1
    x[6]      OBJ       171
    x[6]      packing[1]  138
    x[6]      packing[2]  89
    x[6]      packing[3]  131
    x[6]      packing[4]  72
    x[6]      packing[5]  22
    x[6]      packing[7]  136
    x[6]      packing[8]  96
    x[6]      packing[9]  184
    x[6]      packing[11]  77
    x[6]      packing[13]  68
    x[6]      packing[17]  28
    x[6]      packing[19]  138
    x[6]      packing[20]  110
    x[6]      packing[21]  167
    x[6]      packing[22]  105
    x[6]      packing[23]  23
    x[6]      packing[24]  198
    x[6]      packing[26]  155
    x[6]      packing[28]  3
    x[6]      packing[30]  61
    x[6]      packing[31]  58
    x[6]      packing[32]  29
    x[6]      packing[33]  83
    x[6]      packing[34]  123
    x[6]      packing[35]  83
    x[6]      packing[36]  160
    x[6]      packing[37]  102
    x[6]      packing[39]  40
    x[6]      packing[40]  181
    x[6]      packing[41]  74
    x[6]      packing[44]  110
    x[6]      packing[45]  66
    x[6]      packing[46]  188
    x[6]      packing[48]  165
    x[6]      packing[49]  14
    x[7]      OBJ       175
    x[7]      packing[0]  120
    x[7]      packing[1]  141
    x[7]      packing[3]  101
    x[7]      packing[6]  106
    x[7]      packing[7]  192
    x[7]      packing[9]  184
    x[7]      packing[10]  180
    x[7]      packing[14]  121
    x[7]      packing[15]  54
    x[7]      packing[17]  41
    x[7]      packing[18]  155
    x[7]      packing[19]  65
    x[7]      packing[20]  68
    x[7]      packing[21]  75
    x[7]      packing[23]  33
    x[7]      packing[24]  135
    x[7]      packing[25]  14
    x[7]      packing[26]  10
    x[7]      packing[27]  34
    x[7]      packing[28]  4
    x[7]      packing[29]  84
    x[7]      packing[30]  171
    x[7]      packing[31]  65
    x[7]      packing[33]  192
    x[7]      packing[34]  157
    x[7]      packing[35]  159
    x[7]      packing[36]  94
    x[7]      packing[38]  7
    x[7]      packing[39]  31
    x[7]      packing[40]  170
    x[7]      packing[41]  128
    x[7]      packing[43]  15
    x[7]      packing[44]  55
    x[7]      packing[46]  29
    x[7]      packing[47]  128
    x[7]      packing[48]  115
    x[7]      packing[49]  172
    x[7]      R53       1
    x[8]      OBJ       28
    x[8]      packing[0]  13
    x[8]      packing[1]  64
    x[8]      packing[2]  17
    x[8]      packing[3]  69
    x[8]      packing[4]  67
    x[8]      packing[5]  43
    x[8]      packing[6]  178
    x[8]      packing[8]  41
    x[8]      packing[10]  183
    x[8]      packing[13]  60
    x[8]      packing[16]  60
    x[8]      packing[17]  135
    x[8]      packing[18]  176
    x[8]      packing[22]  179
    x[8]      packing[24]  88
    x[8]      packing[25]  129
    x[8]      packing[27]  150
    x[8]      packing[28]  126
    x[8]      packing[30]  40
    x[8]      packing[31]  20
    x[8]      packing[33]  78
    x[8]      packing[34]  71
    x[8]      packing[35]  48
    x[8]      packing[36]  109
    x[8]      packing[38]  111
    x[8]      packing[40]  56
    x[8]      packing[43]  90
    x[8]      packing[44]  88
    x[8]      packing[45]  158
    x[8]      packing[46]  175
    x[8]      packing[47]  67
    x[8]      packing[48]  152
    x[8]      packing[49]  74
    x[9]      OBJ       118
    x[9]      packing[2]  153
    x[9]      packing[3]  133
    x[9]      packing[4]  45
    x[9]      packing[5]  120
    x[9]      packing[6]  194
    x[9]      packing[7]  148
    x[9]      packing[8]  44
    x[9]      packing[9]  199
    x[9]      packing[10]  92
    x[9]      packing[11]  104
    x[9]      packing[14]  149
    x[9]      packing[15]  36
    x[9]      packing[17]  155
    x[9]      packing[18]  136
    x[9]      packing[20]  167
    x[9]      packing[21]  17
    x[9]      packing[22]  3
    x[9]      packing[23]  90
    x[9]      packing[24]  162
    x[9]      packing[25]  163
    x[9]      packing[27]  24
    x[9]      packing[28]  58
    x[9]      packing[29]  2
    x[9]      packing[30]  79
    x[9]      packing[31]  134
    x[9]      packing[32]  127
    x[9]      packing[34]  74
    x[9]      packing[35]  28
    x[9]      packing[36]  188
    x[9]      packing[37]  124
    x[9]      packing[39]  108
    x[9]      packing[40]  25
    x[9]      packing[41]  80
    x[9]      packing[42]  118
    x[9]      packing[46]  40
    x[9]      packing[47]  145
    x[9]      packing[48]  33
    x[9]      packing[49]  29
    x[10]     OBJ       39
    x[10]     packing[0]  36
    x[10]     packing[1]  15
    x[10]     packing[2]  47
    x[10]     packing[3]  67
    x[10]     packing[4]  35
    x[10]     packing[7]  169
    x[10]     packing[8]  76
    x[10]     packing[9]  130
    x[10]     packing[10]  44
    x[10]     packing[12]  166
    x[10]     packing[13]  176
    x[10]     packing[14]  16
    x[10]     packing[15]  72
    x[10]     packing[16]  148
    x[10]     packing[17]  45
    x[10]     packing[18]  162
    x[10]     packing[19]  61
    x[10]     packing[20]  110
    x[10]     packing[21]  12
    x[10]     packing[22]  118
    x[10]     packing[23]  63
    x[10]     packing[24]  176
    x[10]     packing[26]  78
    x[10]     packing[27]  77
    x[10]     packing[28]  17
    x[10]     packing[29]  57
    x[10]     packing[31]  23
    x[10]     packing[32]  126
    x[10]     packing[33]  7
    x[10]     packing[34]  53
    x[10]     packing[35]  190
    x[10]     packing[36]  43
    x[10]     packing[37]  117
    x[10]     packing[39]  156
    x[10]     packing[40]  71
    x[10]     packing[41]  120
    x[10]     packing[42]  119
    x[10]     packing[45]  56
    x[10]     packing[48]  66
    x[11]     OBJ       127
    x[11]     packing[0]  154
    x[11]     packing[1]  115
    x[11]     packing[2]  110
    x[11]     packing[3]  21
    x[11]     packing[4]  159
    x[11]     packing[5]  75
    x[11]     packing[7]  32
    x[11]     packing[8]  124
    x[11]     packing[10]  110
    x[11]     packing[12]  170
    x[11]     packing[13]  36
    x[11]     packing[14]  198
    x[11]     packing[15]  68
    x[11]     packing[16]  187
    x[11]     packing[17]  145
    x[11]     packing[18]  168
    x[11]     packing[19]  27
    x[11]     packing[20]  37
    x[11]     packing[23]  186
    x[11]     packing[24]  172
    x[11]     packing[25]  144
    x[11]     packing[26]  91
    x[11]     packing[27]  50
    x[11]     packing[28]  149
    x[11]     packing[30]  66
    x[11]     packing[31]  153
    x[11]     packing[32]  112
    x[11]     packing[33]  66
    x[11]     packing[34]  58
    x[11]     packing[35]  166
    x[11]     packing[36]  88
    x[11]     packing[37]  38
    x[11]     packing[38]  32
    x[11]     packing[39]  173
    x[11]     packing[40]  126
    x[11]     packing[41]  150
    x[11]     packing[43]  52
    x[11]     packing[45]  128
    x[11]     packing[46]  48
    x[11]     packing[48]  137
    x[11]     packing[49]  86
    x[12]     OBJ       126
    x[12]     packing[1]  118
    x[12]     packing[2]  65
    x[12]     packing[3]  22
    x[12]     packing[4]  197
    x[12]     packing[5]  150
    x[12]     packing[6]  175
    x[12]     packing[7]  74
    x[12]     packing[8]  111
    x[12]     packing[9]  183
    x[12]     packing[10]  181
    x[12]     packing[11]  179
    x[12]     packing[12]  115
    x[12]     packing[14]  31
    x[12]     packing[15]  164
    x[12]     packing[16]  59
    x[12]     packing[18]  106
    x[12]     packing[20]  136
    x[12]     packing[21]  70
    x[12]     packing[23]  63
    x[12]     packing[24]  102
    x[12]     packing[25]  140
    x[12]     packing[26]  61
    x[12]     packing[27]  95
    x[12]     packing[28]  173
    x[12]     packing[29]  160
    x[12]     packing[32]  29
    x[12]     packing[34]  196
    x[12]     packing[35]  26
    x[12]     packing[36]  150
    x[12]     packing[37]  153
    x[12]     packing[38]  56
    x[12]     packing[39]  171
    x[12]     packing[40]  18
    x[12]     packing[41]  181
    x[12]     packing[42]  158
    x[12]     packing[43]  139
    x[12]     packing[45]  61
    x[12]     packing[46]  107
    x[12]     packing[49]  53
    x[13]     OBJ       54
    x[13]     packing[2]  125
    x[13]     packing[3]  88
    x[13]     packing[4]  110
    x[13]     packing[5]  153
    x[13]     packing[7]  94
    x[13]     packing[8]  179
    x[13]     packing[10]  31
    x[13]     packing[12]  64
    x[13]     packing[14]  149
    x[13]     packing[15]  158
    x[13]     packing[16]  116
    x[13]     packing[17]  134
    x[13]     packing[18]  41
    x[13]     packing[19]  77
    x[13]     packing[21]  125
    x[13]     packing[22]  78
    x[13]     packing[23]  96
    x[13]     packing[24]  39
    x[13]     packing[25]  181
    x[13]     packing[26]  127
    x[13]     packing[27]  198
    x[13]     packing[28]  66
    x[13]     packing[30]  199
    x[13]     packing[31]  24
    x[13]     packing[32]  153
    x[13]     packing[33]  21
    x[13]     packing[34]  5
    x[13]     packing[36]  86
    x[13]     packing[37]  184
    x[13]     packing[40]  72
    x[13]     packing[41]  149
    x[13]     packing[42]  78
    x[13]     packing[43]  191
    x[13]     packing[44]  20
    x[13]     packing[46]  133
    x[13]     packing[47]  97
    x[13]     packing[48]  78
    x[13]     packing[49]  128
    x[14]     OBJ       9
    x[14]     packing[1]  103
    x[14]     packing[2]  117
    x[14]     packing[3]  15
    x[14]     packing[4]  1
    x[14]     packing[5]  196
    x[14]     packing[8]  84
    x[14]     packing[9]  39
    x[14]     packing[11]  69
    x[14]     packing[12]  185
    x[14]     packing[13]  85
    x[14]     packing[15]  134
    x[14]     packing[16]  172
    x[14]     packing[17]  55
    x[14]     packing[20]  24
    x[14]     packing[21]  136
    x[14]     packing[24]  5
    x[14]     packing[25]  117
    x[14]     packing[26]  179
    x[14]     packing[28]  183
    x[14]     packing[29]  13
    x[14]     packing[30]  194
    x[14]     packing[31]  72
    x[14]     packing[32]  124
    x[14]     packing[34]  22
    x[14]     packing[37]  43
    x[14]     packing[38]  114
    x[14]     packing[39]  50
    x[14]     packing[40]  38
    x[14]     packing[41]  12
    x[14]     packing[43]  197
    x[14]     packing[45]  66
    x[14]     packing[47]  146
    x[14]     packing[49]  142
    x[15]     OBJ       163
    x[15]     packing[0]  161
    x[15]     packing[2]  79
    x[15]     packing[3]  196
    x[15]     packing[4]  98
    x[15]     packing[5]  161
    x[15]     packing[6]  196
    x[15]     packing[7]  143
    x[15]     packing[8]  163
    x[15]     packing[9]  31
    x[15]     packing[11]  140
    x[15]     packing[12]  136
    x[15]     packing[13]  189
    x[15]     packing[14]  3
    x[15]     packing[17]  25
    x[15]     packing[18]  151
    x[15]     packing[19]  140
    x[15]     packing[20]  36
    x[15]     packing[21]  158
    x[15]     packing[23]  78
    x[15]     packing[24]  49
    x[15]     packing[25]  6
    x[15]     packing[27]  68
    x[15]     packing[28]  153
    x[15]     packing[29]  118
    x[15]     packing[30]  138
    x[15]     packing[32]  134
    x[15]     packing[33]  59
    x[15]     packing[34]  137
    x[15]     packing[35]  70
    x[15]     packing[36]  143
    x[15]     packing[37]  27
    x[15]     packing[39]  128
    x[15]     packing[40]  130
    x[15]     packing[41]  168
    x[15]     packing[42]  75
    x[15]     packing[43]  190
    x[15]     packing[44]  124
    x[15]     packing[45]  15
    x[15]     packing[46]  105
    x[15]     packing[47]  187
    x[16]     OBJ       53
    x[16]     packing[0]  25
    x[16]     packing[1]  106
    x[16]     packing[2]  94
    x[16]     packing[3]  79
    x[16]     packing[4]  43
    x[16]     packing[5]  163
    x[16]     packing[7]  126
    x[16]     packing[8]  199
    x[16]     packing[9]  197
    x[16]     packing[11]  195
    x[16]     packing[12]  63
    x[16]     packing[13]  85
    x[16]     packing[14]  61
    x[16]     packing[15]  176
    x[16]     packing[16]  61
    x[16]     packing[17]  176
    x[16]     packing[19]  177
    x[16]     packing[20]  171
    x[16]     packing[21]  89
    x[16]     packing[23]  77
    x[16]     packing[24]  19
    x[16]     packing[25]  152
    x[16]     packing[26]  25
    x[16]     packing[27]  17
    x[16]     packing[28]  108
    x[16]     packing[31]  101
    x[16]     packing[32]  2
    x[16]     packing[33]  34
    x[16]     packing[34]  108
    x[16]     packing[35]  57
    x[16]     packing[36]  86
    x[16]     packing[37]  174
    x[16]     packing[38]  65
    x[16]     packing[39]  122
    x[16]     packing[40]  177
    x[16]     packing[41]  110
    x[16]     packing[42]  75
    x[16]     packing[43]  138
    x[16]     packing[44]  1
    x[16]     packing[46]  150
    x[16]     packing[47]  68
    x[16]     packing[48]  190
    x[16]     packing[49]  44
    x[17]     OBJ       114
    x[17]     packing[0]  106
    x[17]     packing[1]  37
    x[17]     packing[2]  104
    x[17]     packing[3]  85
    x[17]     packing[4]  169
    x[17]     packing[5]  84
    x[17]     packing[6]  30
    x[17]     packing[7]  172
    x[17]     packing[8]  95
    x[17]     packing[9]  80
    x[17]     packing[10]  22
    x[17]     packing[11]  117
    x[17]     packing[12]  164
    x[17]     packing[13]  120
    x[17]     packing[14]  82
    x[17]     packing[16]  27
    x[17]     packing[17]  130
    x[17]     packing[18]  139
    x[17]     packing[19]  160
    x[17]     packing[23]  173
    x[17]     packing[24]  190
    x[17]     packing[25]  168
    x[17]     packing[26]  95
    x[17]     packing[30]  139
    x[17]     packing[31]  126
    x[17]     packing[32]  125
    x[17]     packing[33]  119
    x[17]     packing[34]  182
    x[17]     packing[36]  3
    x[17]     packing[37]  56
    x[17]     packing[39]  178
    x[17]     packing[41]  100
    x[17]     packing[42]  90
    x[17]     packing[43]  186
    x[17]     packing[44]  11
    x[17]     packing[45]  124
    x[17]     packing[46]  107
    x[17]     packing[48]  172
    x[17]     packing[49]  57
    x[18]     OBJ       67
    x[18]     packing[0]  145
    x[18]     packing[1]  14
    x[18]     packing[2]  22
    x[18]     packing[3]  164
    x[18]     packing[4]  121
    x[18]     packing[5]  61
    x[18]     packing[6]  160
    x[18]     packing[7]  44
    x[18]     packing[8]  121
    x[18]     packing[9]  8
    x[18]     packing[11]  152
    x[18]     packing[12]  39
    x[18]     packing[13]  37
    x[18]     packing[14]  146
    x[18]     packing[16]  82
    x[18]     packing[17]  23
    x[18]     packing[18]  115
    x[18]     packing[20]  191
    x[18]     packing[23]  90
    x[18]     packing[24]  115
    x[18]     packing[25]  116
    x[18]     packing[27]  185
    x[18]     packing[28]  186
    x[18]     packing[30]  74
    x[18]     packing[31]  3
    x[18]     packing[32]  97
    x[18]     packing[34]  115
    x[18]     packing[35]  189
    x[18]     packing[37]  133
    x[18]     packing[38]  167
    x[18]     packing[39]  96
    x[18]     packing[40]  70
    x[18]     packing[41]  155
    x[18]     packing[42]  192
    x[18]     packing[43]  26
    x[18]     packing[44]  62
    x[18]     packing[46]  77
    x[18]     packing[47]  137
    x[18]     packing[48]  80
    x[18]     packing[49]  73
    x[19]     OBJ       29
    x[19]     packing[0]  35
    x[19]     packing[2]  46
    x[19]     packing[3]  81
    x[19]     packing[4]  160
    x[19]     packing[7]  122
    x[19]     packing[9]  28
    x[19]     packing[10]  40
    x[19]     packing[11]  75
    x[19]     packing[12]  144
    x[19]     packing[13]  3
    x[19]     packing[15]  110
    x[19]     packing[17]  181
    x[19]     packing[18]  52
    x[19]     packing[20]  53
    x[19]     packing[21]  2
    x[19]     packing[22]  19
    x[19]     packing[23]  4
    x[19]     packing[26]  31
    x[19]     packing[27]  140
    x[19]     packing[29]  70
    x[19]     packing[31]  46
    x[19]     packing[33]  125
    x[19]     packing[34]  9
    x[19]     packing[36]  118
    x[19]     packing[37]  102
    x[19]     packing[38]  147
    x[19]     packing[39]  127
    x[19]     packing[40]  153
    x[19]     packing[41]  172
    x[19]     packing[42]  74
    x[19]     packing[43]  45
    x[19]     packing[45]  159
    x[19]     packing[46]  19
    x[19]     packing[47]  55
    x[19]     packing[49]  164
    x[20]     OBJ       95
    x[20]     packing[0]  75
    x[20]     packing[1]  75
    x[20]     packing[2]  141
    x[20]     packing[3]  6
    x[20]     packing[4]  156
    x[20]     packing[5]  136
    x[20]     packing[7]  135
    x[20]     packing[8]  143
    x[20]     packing[9]  31
    x[20]     packing[10]  31
    x[20]     packing[11]  37
    x[20]     packing[12]  138
    x[20]     packing[13]  126
    x[20]     packing[14]  131
    x[20]     packing[15]  76
    x[20]     packing[16]  131
    x[20]     packing[17]  47
    x[20]     packing[19]  13
    x[20]     packing[21]  117
    x[20]     packing[22]  180
    x[20]     packing[23]  142
    x[20]     packing[24]  185
    x[20]     packing[25]  171
    x[20]     packing[27]  196
    x[20]     packing[30]  38
    x[20]     packing[36]  139
    x[20]     packing[37]  197
    x[20]     packing[38]  192
    x[20]     packing[39]  151
    x[20]     packing[40]  172
    x[20]     packing[41]  30
    x[20]     packing[42]  5
    x[20]     packing[43]  45
    x[20]     packing[45]  177
    x[20]     packing[46]  120
    x[20]     packing[47]  172
    x[20]     packing[48]  138
    MARKER    'MARKER'                 'INTEND'
RHS
    RHS1      packing[0]  509
    RHS1      packing[1]  639
    RHS1      packing[2]  911
    RHS1      packing[3]  913
    RHS1      packing[4]  895
    RHS1      packing[5]  826
    RHS1      packing[6]  710
    RHS1      packing[7]  852
    RHS1      packing[8]  789
    RHS1      packing[9]  753
    RHS1      packing[10]  682
    RHS1      packing[11]  667
    RHS1      packing[12]  918
    RHS1      packing[13]  733
    RHS1      packing[14]  725
    RHS1      packing[15]  750
    RHS1      packing[16]  725
    RHS1      packing[17]  882
    RHS1      packing[18]  847
    RHS1      packing[19]  528
    RHS1      packing[20]  735
    RHS1      packing[21]  649
    RHS1      packing[22]  533
    RHS1      packing[23]  672
    RHS1      packing[24]  872
    RHS1      packing[25]  993
    RHS1      packing[26]  573
    RHS1      packing[27]  753
    RHS1      packing[28]  840
    RHS1      packing[29]  501
    RHS1      packing[30]  713
    RHS1      packing[31]  617
    RHS1      packing[32]  575
    RHS1      packing[33]  606
    RHS1      packing[34]  809
    RHS1      packing[35]  752
    RHS1      packing[36]  864
    RHS1      packing[37]  1074
    RHS1      packing[38]  629
    RHS1      packing[39]  908
    RHS1      packing[40]  971
    RHS1      packing[41]  1016
    RHS1      packing[42]  776
    RHS1      packing[43]  832
    RHS1      packing[44]  466
    RHS1      packing[45]  731
    RHS1      packing[46]  910
    RHS1      packing[47]  770
    RHS1      packing[48]  775
    RHS1      packing[49]  759
    RHS1      R53       3
BOUNDS
 BV BND1      x[1]    
 BV BND1      x[2]    
 BV BND1      x[3]    
 BV BND1      x[4]    
 BV BND1      x[5]    
 BV BND1      x[6]    
 BV BND1      x[7]    
 BV BND1      x[8]    
 BV BND1      x[9]    
 BV BND1      x[10]   
 BV BND1      x[11]   
 BV BND1      x[12]   
 BV BND1      x[13]   
 BV BND1      x[14]   
 BV BND1      x[15]   
 BV BND1      x[16]   
 BV BND1      x[17]   
 BV BND1      x[18]   
 BV BND1      x[19]   
 BV BND1      x[20]   
ENDATA
